Set parameter TokenServer to value "hpc-licenses.hpcc.usc.edu"
Set parameter TimeLimit to value 3600
Gurobi Optimizer version 9.5.1 build v9.5.1rc2 (linux64)
Thread count: 20 physical cores, 20 logical processors, using up to 20 threads
Optimize a model with 6007 rows, 4529 columns and 24534 nonzeros
Model fingerprint: 0x8344052b
Variable types: 4506 continuous, 23 integer (23 binary)
Coefficient statistics:
  Matrix range     [1e+00, 1e+00]
  Objective range  [1e-03, 1e+00]
  Bounds range     [1e+00, 1e+00]
  RHS range        [1e+00, 9e+01]
Presolve removed 1520 rows and 1515 columns
Presolve time: 0.05s
Presolved: 4487 rows, 3014 columns, 21975 nonzeros
Variable types: 2994 continuous, 20 integer (20 binary)
Found heuristic solution: objective 260.1362585

Root relaxation: objective 2.682906e+02, 2893 iterations, 0.10 seconds (0.16 work units)

    Nodes    |    Current Node    |     Objective Bounds      |     Work
 Expl Unexpl |  Obj  Depth IntInf | Incumbent    BestBd   Gap | It/Node Time

     0     0  268.29058    0    4  260.13626  268.29058  3.13%     -    0s
     0     0  268.18883    0    4  260.13626  268.18883  3.10%     -    0s
     0     0  268.18257    0    4  260.13626  268.18257  3.09%     -    0s
     0     0  268.13618    0    4  260.13626  268.13618  3.08%     -    0s
     0     0  267.66244    0    4  260.13626  267.66244  2.89%     -    0s
H    0     0                     262.0613887  267.66244  2.14%     -    0s
     0     0  267.48828    0    4  262.06139  267.48828  2.07%     -    0s
     0     0  267.31503    0    4  262.06139  267.31503  2.00%     -    0s
     0     0  267.31503    0    4  262.06139  267.31503  2.00%     -    0s
     0     0  267.31503    0    4  262.06139  267.31503  2.00%     -    0s
H    0     0                     264.1458514  267.31503  1.20%     -    0s
     0     0  267.26198    0    6  264.14585  267.26198  1.18%     -    0s
     0     0  267.25508    0    5  264.14585  267.25508  1.18%     -    0s
H    0     0                     266.3029623  266.87082  0.21%     -    0s
     0     0  266.87034    0    4  266.30296  266.87034  0.21%     -    0s
     0     0  266.81768    0    4  266.30296  266.81768  0.19%     -    0s

Cutting planes:
  MIR: 193
  Flow cover: 2
  RLT: 31
  Relax-and-lift: 8

Explored 1 nodes (3834 simplex iterations) in 0.96 seconds (0.88 work units)
Thread count was 20 (of 20 available processors)

Solution count 4: 266.303 264.146 262.061 260.136 

Optimal solution found (tolerance 1.00e-04)
Best objective 2.663029623196e+02, best bound 2.663029623196e+02, gap 0.0000%



#########node  1
V1.8
#########node  2
0.11764705882352941,0.8823529411764706
#########node  3
1.0,0.0


Total Solving Time 1.3502693176269531
obj value 266.3029623195589
Policy Regret train (Sum) 13.487813242844421
Best Treatment Found train (%) 49.0
treatment classification acc train (%) 64.60000000000001
Policy Regret test (Sum) 61.813832268000596
Best Treatment Found test (%) 75.11
treatment classification acc test (%) 66.81
